
Gurobi 9.1.1 (win64) logging started Sat Sep  7 19:53:33 2024

Changed value of parameter LogFile to results/ExampleConfig/LA-county-step-max-45.log
   Prev:   Default: 
Changed value of parameter TimeLimit to 10.0
   Prev: inf  Min: 0.0  Max: inf  Default: inf

Gurobi 9.1.1 (win64) logging started Sat Sep  7 19:53:33 2024

Changed value of parameter LogFile to results/ExampleConfig/LA-county-step-max-45.log
   Prev:   Default: 
Warning: variable name "lam(0, 0, 'in')" has a space
Warning: constraint name "Grad_cut ub_0" has a space
Warning: to let Gurobi read it back, use rlp format
Changed value of parameter TimeLimit to 10.0
   Prev: inf  Min: 0.0  Max: inf  Default: inf
Gurobi Optimizer version 9.1.1 build v9.1.1rc0 (win64)
Thread count: 12 physical cores, 24 logical processors, using up to 24 threads
Optimize a model with 287 rows, 1427 columns and 8638 nonzeros
Model fingerprint: 0xb53e0c19
Variable types: 624 continuous, 803 integer (803 binary)
Coefficient statistics:
  Matrix range     [2e-02, 7e+05]
  Objective range  [1e+00, 1e+00]
  Bounds range     [1e+00, 7e+05]
  RHS range        [1e+00, 2e+06]

Warning: Completing partial solution with 739 unfixed non-continuous variables out of 803
User MIP start produced solution with objective 1.59003 (0.10s)
Loaded user MIP start with objective 1.59003

Presolve removed 50 rows and 0 columns
Presolve time: 0.01s
Presolved: 237 rows, 1427 columns, 8026 nonzeros
Variable types: 612 continuous, 815 integer (803 binary)

Concurrent LP optimizer: primal simplex, dual simplex, and barrier
Showing barrier log only...

Root barrier log...

Ordering time: 0.00s

Barrier statistics:
 AA' NZ     : 2.908e+03
 Factor NZ  : 3.996e+03 (roughly 1 MByte of memory)
 Factor Ops : 1.121e+05 (less than 1 second per iteration)
 Threads    : 1

Barrier performed 0 iterations in 0.14 seconds
Barrier solve interrupted - model solved by another algorithm


Solved with primal simplex

Root relaxation: objective 2.084307e+00, 587 iterations, 0.02 seconds

    Nodes    |    Current Node    |     Objective Bounds      |     Work
 Expl Unexpl |  Obj  Depth IntInf | Incumbent    BestBd   Gap | It/Node Time

     0     0    2.08431    0   45    1.59003    2.08431  31.1%     -    0s
     0     0    2.06475    0   49    1.59003    2.06475  29.9%     -    0s
     0     0    2.06348    0   50    1.59003    2.06348  29.8%     -    0s
     0     0    2.06331    0   59    1.59003    2.06331  29.8%     -    0s
     0     0    2.06326    0   57    1.59003    2.06326  29.8%     -    0s
     0     0    2.06326    0   71    1.59003    2.06326  29.8%     -    0s
     0     0    2.06326    0   71    1.59003    2.06326  29.8%     -    0s
     0     2    2.06326    0   71    1.59003    2.06326  29.8%     -    0s
H13108  7466                       1.5968310    1.81190  13.5%  29.0    4s
 13813  8384    1.60811   39   58    1.59683    1.80261  12.9%  28.6    5s
 56570 40100    1.64851   43   52    1.59683    1.71935  7.67%  28.4   10s

Cutting planes:
  Gomory: 10
  Cover: 17
  MIR: 13
  StrongCG: 1
  Flow cover: 11
  Inf proof: 5
  RLT: 7
  Lazy constraints: 299

Explored 57662 nodes (1641650 simplex iterations) in 10.04 seconds
Thread count was 24 (of 24 available processors)

Solution count 2: 1.59683 1.59003 

Time limit reached
Best objective 1.596831034871e+00, best bound 1.719345187907e+00, gap 7.6723%

User-callback calls 117063, time in user-callback 0.86 sec
Warning: variable name "lam(0, 0, 'in')" has a space
Warning: constraint name "vertex to district[0]" has a space
Warning: to let Gurobi read it back, use rlp format
Warning: variable name "lam(0, 0, 'in')" has a space
Warning: default variable names used to write solution file
